Maximize
 obj: 0 X1
Subject To
 c1:
  + 1 X103 + 1 X172 + 1 X69 + 1 X83 + 1 X173 + 1 X86 + 1 X26 + 1 X135
  + 1 X116 + 1 X100 + 1 X161 + 1 X156 + 1 X169
  <= 1
 c2:
  + 1 X25 + 1 X98 + 1 X41 + 1 X159 + 1 X175 + 1 X104 + 1 X111 + 1 X140
  + 1 X21
  <= 1
 c3:
  + 1 X84 + 1 X126 + 1 X141 + 1 X136 + 1 X125 + 1 X8 + 1 X38 + 1 X72
  + 1 X171 + 1 X114 + 1 X49 + 1 X65 + 1 X97 + 1 X146 + 1 X12 + 1 X7
  + 1 X42 + 1 X157
  <= 1
 c4:
  + 1 X59 + 1 X111 + 1 X57 + 1 X80 + 1 X174 + 1 X87 + 1 X125 + 1 X115
  + 1 X35 + 1 X103 + 1 X51
  <= 1
 c5:
  + 1 X84 + 1 X101 + 1 X57 + 1 X61 + 1 X68 + 1 X21 + 1 X113 + 1 X78
  + 1 X59 + 1 X121
  <= 1
 c6:
  + 1 X88 + 1 X56 + 1 X41 + 1 X3 + 1 X113 + 1 X53 + 1 X98 + 1 X125
  + 1 X82 + 1 X138 + 1 X81 + 1 X73 + 1 X137 + 1 X174 + 1 X55 + 1 X155
  + 1 X64
  <= 1
 c7:
  + 1 X47 + 1 X3 + 1 X30 + 1 X52 + 1 X85
  <= 1
 c8:
  + 1 X126 + 1 X164
  <= 1
 c9:
  + 1 X15 + 1 X92 + 1 X22 + 1 X1 + 1 X61 + 1 X94 + 1 X149 + 1 X53
  + 1 X8 + 1 X136 + 1 X170 + 1 X124 + 1 X130 + 1 X86
  <= 1
 c10:
  + 1 X136 + 1 X135 + 1 X138 + 1 X123 + 1 X28 + 1 X88 + 1 X26 + 1 X12
  + 1 X111 + 1 X106 + 1 X78
  <= 1
 c11:
  + 1 X44 + 1 X2 + 1 X121 + 1 X46 + 1 X136 + 1 X70 + 1 X40 + 1 X57
  + 1 X8 + 1 X28 + 1 X88 + 1 X87 + 1 X131 + 1 X79 + 1 X96 + 1 X15
  + 1 X73
  <= 1
 c12:
  + 1 X9 + 1 X87 + 1 X166 + 1 X48 + 1 X128 + 1 X119 + 1 X122 + 1 X8
  <= 1
 c13:
  + 1 X84 + 1 X22 + 1 X101 + 1 X163 + 1 X112 + 1 X93 + 1 X7 + 1 X78
  + 1 X79 + 1 X17
  <= 1
 c14:
  + 1 X103 + 1 X107 + 1 X56 + 1 X8 + 1 X145 + 1 X136 + 1 X170 + 1 X165
  + 1 X34
  <= 1
 c15:
  + 1 X63 + 1 X71 + 1 X25 + 1 X24 + 1 X14 + 1 X80 + 1 X2 + 1 X123
  + 1 X159 + 1 X29 + 1 X116 + 1 X88 + 1 X31 + 1 X148 + 1 X42
  <= 1
 c16:
  + 1 X165 + 1 X2 + 1 X20 + 1 X84 + 1 X133 + 1 X93 + 1 X64 + 1 X37
  + 1 X43 + 1 X91 + 1 X15 + 1 X151 + 1 X16 + 1 X34
  <= 1
 c17:
  + 1 X149 + 1 X50 + 1 X152 + 1 X70 + 1 X30 + 1 X71 + 1 X2 + 1 X9
  + 1 X142 + 1 X47 + 1 X150
  <= 1
 c18:
  + 1 X50 + 1 X172 + 1 X28 + 1 X92 + 1 X169 + 1 X128 + 1 X8 + 1 X17
  + 1 X155 + 1 X164 + 1 X156 + 1 X166 + 1 X143 + 1 X95 + 1 X160 + 1 X22
  + 1 X148
  <= 1
 c19:
  + 1 X114 + 1 X107 + 1 X125 + 1 X99
  <= 1
 c20:
  + 1 X37 + 1 X60 + 1 X97 + 1 X10 + 1 X146 + 1 X129 + 1 X69 + 1 X145
  + 1 X92 + 1 X41 + 1 X86 + 1 X61 + 1 X73 + 1 X175
  <= 1
 c21:
  + 1 X59 + 1 X125 + 1 X153 + 1 X86 + 1 X104 + 1 X140 + 1 X113 + 1 X170
  + 1 X105 + 1 X18 + 1 X49 + 1 X117 + 1 X28 + 1 X27
  <= 1
 c22:
  + 1 X14 + 1 X10 + 1 X62 + 1 X51 + 1 X64 + 1 X15 + 1 X147 + 1 X134
  + 1 X7 + 1 X65 + 1 X125 + 1 X42 + 1 X93 + 1 X100 + 1 X123 + 1 X111
  + 1 X157 + 1 X160
  <= 1
 c23:
  + 1 X3 + 1 X97 + 1 X20 + 1 X59 + 1 X69 + 1 X132 + 1 X173 + 1 X37
  + 1 X49 + 1 X70 + 1 X137 + 1 X105 + 1 X91 + 1 X16 + 1 X31 + 1 X66
  + 1 X134 + 1 X135 + 1 X100 + 1 X55
  <= 1
 c24:
  + 1 X71 + 1 X60 + 1 X95 + 1 X147 + 1 X78 + 1 X14 + 1 X110 + 1 X25
  <= 1
 c25:
  + 1 X15 + 1 X26 + 1 X57
  <= 1
 c26:
  + 1 X168 + 1 X153 + 1 X170 + 1 X87 + 1 X10 + 1 X73 + 1 X68 + 1 X133
  + 1 X102 + 1 X18
  <= 1
 c27:
  + 1 X143 + 1 X31 + 1 X137 + 1 X27 + 1 X134 + 1 X55 + 1 X107 + 1 X17
  + 1 X151 + 1 X32 + 1 X136 + 1 X93 + 1 X157 + 1 X57 + 1 X67 + 1 X133
  + 1 X135 + 1 X6
  <= 1
 c28:
  + 1 X87 + 1 X24 + 1 X146 + 1 X73 + 1 X61 + 1 X42 + 1 X30 + 1 X167
  + 1 X100 + 1 X81 + 1 X45 + 1 X140
  <= 1
 c29:
  + 1 X37 + 1 X27 + 1 X56 + 1 X147 + 1 X97 + 1 X100 + 1 X20 + 1 X118
  + 1 X92 + 1 X81 + 1 X3 + 1 X22 + 1 X46 + 1 X69 + 1 X78 + 1 X145
  + 1 X55 + 1 X14
  <= 1
 c30:
  + 1 X164 + 1 X39 + 1 X124 + 1 X13 + 1 X56 + 1 X143 + 1 X95 + 1 X90
  + 1 X5 + 1 X130 + 1 X129 + 1 X114 + 1 X115 + 1 X44 + 1 X119 + 1 X145
  + 1 X137 + 1 X79 + 1 X151
  <= 1
 c31:
  + 1 X118 + 1 X56 + 1 X28 + 1 X138 + 1 X31 + 1 X159 + 1 X38 + 1 X80
  + 1 X33 + 1 X1 + 1 X158 + 1 X98 + 1 X46 + 1 X160 + 1 X51 + 1 X36
  + 1 X77 + 1 X171 + 1 X94
  <= 1
 c32:
  + 1 X163 + 1 X29 + 1 X73
  <= 1
 c33:
  + 1 X113 + 1 X31 + 1 X128 + 1 X171 + 1 X124 + 1 X104 + 1 X100 + 1 X18
  + 1 X12 + 1 X43 + 1 X19 + 1 X166 + 1 X138 + 1 X115 + 1 X5
  <= 1
 c34:
  + 1 X19 + 1 X150 + 1 X120 + 1 X41 + 1 X5 + 1 X31 + 1 X63 + 1 X39
  + 1 X156 + 1 X130 + 1 X10
  <= 1
 c35:
  + 1 X94 + 1 X83 + 1 X15 + 1 X71 + 1 X44 + 1 X81 + 1 X135
  <= 1
 obj1:
  + 43 X1 + 17 X2 + 14 X3 + 9 X4 + 1 X5 + 33 X6 + 67 X7 + 21 X8
  + 43 X9 + 31 X10 + 57 X11 + 86 X12 + 25 X13 + 74 X14 + 61 X15 + 67 X16
  + 15 X17 + 74 X18 + 27 X19 + 88 X20 + 86 X21 + 82 X22 + 18 X23 + 95 X24
  + 33 X25 + 6 X26 + 94 X27 + 73 X28 + 42 X29 + 6 X30 + 85 X31 + 52 X32
  + 93 X33 + 26 X34 + 80 X35 + 21 X36 + 25 X37 + 35 X38 + 12 X39 + 92 X40
  + 10 X41 + 87 X42 + 41 X43 + 62 X44 + 59 X45 + 78 X46 + 45 X47 + 96 X48
  + 79 X49 + 56 X50 + 17 X51 + 5 X52 + 79 X53 + 82 X54 + 54 X55 + 52 X56
  + 81 X57 + 30 X58 + 18 X59 + 73 X60 + 52 X61 + 62 X62 + 55 X63 + 35 X64
  + 36 X65 + 35 X66 + 6 X67 + 82 X68 + 83 X69 + 43 X70 + 38 X71 + 16 X72
  + 29 X73 + 41 X74 + 49 X75 + 66 X76 + 96 X77 + 73 X78 + 80 X79 + 90 X80
  + 20 X81 + 88 X82 + 29 X83 + 33 X84 + 56 X85 + 7 X86 + 54 X87 + 4 X88
  + 89 X89 + 73 X90 + 48 X91 + 49 X92 + 65 X93 + 84 X94 + 27 X95 + 95 X96
  + 73 X97 + 18 X98 + 80 X99 + 16 X100 + 51 X101 + 89 X102 + 45 X103 + 60 X104
  + 68 X105 + 97 X106 + 60 X107 + 73 X108 + 11 X109 + 56 X110 + 28 X111 + 14 X112
  + 68 X113 + 5 X114 + 100 X115 + 29 X116 + 34 X117 + 58 X118 + 50 X119 + 68 X120
  + 22 X121 + 29 X122 + 10 X123 + 68 X124 + 36 X125 + 2 X126 + 71 X127 + 26 X128
  + 60 X129 + 80 X130 + 3 X131 + 93 X132 + 15 X133 + 47 X134 + 44 X135 + 67 X136
  + 5 X137 + 33 X138 + 17 X139 + 95 X140 + 9 X141 + 5 X142 + 40 X143 + 46 X144
  + 67 X145 + 73 X146 + 74 X147 + 10 X148 + 2 X149 + 36 X150 + 13 X151 + 1 X152
  + 82 X153 + 91 X154 + 67 X155 + 46 X156 + 81 X157 + 14 X158 + 15 X159 + 43 X160
  + 87 X161 + 39 X162 + 70 X163 + 5 X164 + 63 X165 + 18 X166 + 55 X167 + 56 X168
  + 6 X169 + 47 X170 + 71 X171 + 21 X172 + 99 X173 + 73 X174 + 66 X175
  >= 1
 obj2:
  + 82 X1 + 53 X2 + 76 X3 + 79 X4 + 72 X5 + 30 X6 + 67 X7 + 29 X8
  + 10 X9 + 86 X10 + 60 X11 + 19 X12 + 17 X13 + 98 X14 + 5 X15 + 20 X16
  + 68 X17 + 81 X18 + 35 X19 + 50 X20 + 50 X21 + 79 X22 + 77 X23 + 63 X24
  + 79 X25 + 27 X26 + 80 X27 + 88 X28 + 13 X29 + 98 X30 + 14 X31 + 81 X32
  + 8 X33 + 28 X34 + 5 X35 + 86 X36 + 37 X37 + 77 X38 + 57 X39 + 50 X40
  + 16 X41 + 51 X42 + 48 X43 + 99 X44 + 30 X45 + 8 X46 + 87 X47 + 45 X48
  + 48 X49 + 12 X50 + 50 X51 + 79 X52 + 73 X53 + 74 X54 + 62 X55 + 22 X56
  + 66 X57 + 12 X58 + 87 X59 + 94 X60 + 88 X61 + 3 X62 + 59 X63 + 94 X64
  + 66 X65 + 9 X66 + 2 X67 + 11 X68 + 93 X69 + 52 X70 + 26 X71 + 91 X72
  + 31 X73 + 86 X74 + 18 X75 + 59 X76 + 88 X77 + 91 X78 + 7 X79 + 40 X80
  + 78 X81 + 76 X82 + 91 X83 + 73 X84 + 22 X85 + 28 X86 + 55 X87 + 90 X88
  + 21 X89 + 39 X90 + 41 X91 + 88 X92 + 12 X93 + 19 X94 + 83 X95 + 59 X96
  + 60 X97 + 25 X98 + 36 X99 + 89 X100 + 48 X101 + 48 X102 + 1 X103 + 41 X104
  + 67 X105 + 35 X106 + 50 X107 + 10 X108 + 33 X109 + 11 X110 + 7 X111 + 16 X112
  + 34 X113 + 12 X114 + 41 X115 + 5 X116 + 72 X117 + 11 X118 + 57 X119 + 49 X120
  + 88 X121 + 54 X122 + 5 X123 + 52 X124 + 66 X125 + 78 X126 + 8 X127 + 79 X128
  + 81 X129 + 17 X130 + 26 X131 + 98 X132 + 8 X133 + 28 X134 + 25 X135 + 75 X136
  + 93 X137 + 73 X138 + 73 X139 + 23 X140 + 24 X141 + 82 X142 + 24 X143 + 21 X144
  + 13 X145 + 15 X146 + 60 X147 + 94 X148 + 3 X149 + 32 X150 + 7 X151 + 25 X152
  + 89 X153 + 86 X154 + 79 X155 + 36 X156 + 52 X157 + 95 X158 + 80 X159 + 34 X160
  + 26 X161 + 99 X162 + 20 X163 + 43 X164 + 43 X165 + 25 X166 + 64 X167 + 14 X168
  + 95 X169 + 44 X170 + 88 X171 + 61 X172 + 65 X173 + 26 X174 + 73 X175
  >= 2
 obj3:
  + 22 X1 + 64 X2 + 2 X3 + 52 X4 + 16 X5 + 20 X6 + 58 X7 + 76 X8
  + 60 X9 + 64 X10 + 87 X11 + 37 X12 + 66 X13 + 85 X14 + 8 X15 + 16 X16
  + 24 X17 + 35 X18 + 55 X19 + 91 X20 + 7 X21 + 39 X22 + 21 X23 + 58 X24
  + 44 X25 + 27 X26 + 1 X27 + 32 X28 + 89 X29 + 36 X30 + 87 X31 + 43 X32
  + 67 X33 + 40 X34 + 80 X35 + 13 X36 + 57 X37 + 46 X38 + 29 X39 + 37 X40
  + 45 X41 + 73 X42 + 82 X43 + 78 X44 + 5 X45 + 46 X46 + 60 X47 + 37 X48
  + 17 X49 + 98 X50 + 81 X51 + 9 X52 + 90 X53 + 89 X54 + 75 X55 + 41 X56
  + 39 X57 + 82 X58 + 26 X59 + 13 X60 + 98 X61 + 55 X62 + 41 X63 + 45 X64
  + 79 X65 + 22 X66 + 80 X67 + 34 X68 + 30 X69 + 68 X70 + 17 X71 + 61 X72
  + 82 X73 + 100 X74 + 46 X75 + 36 X76 + 98 X77 + 35 X78 + 7 X79 + 75 X80
  + 11 X81 + 72 X82 + 46 X83 + 97 X84 + 21 X85 + 22 X86 + 94 X87 + 23 X88
  + 69 X89 + 70 X90 + 34 X91 + 18 X92 + 61 X93 + 66 X94 + 31 X95 + 56 X96
  + 81 X97 + 62 X98 + 34 X99 + 76 X100 + 5 X101 + 99 X102 + 64 X103 + 65 X104
  + 100 X105 + 87 X106 + 36 X107 + 91 X108 + 61 X109 + 51 X110 + 3 X111 + 51 X112
  + 62 X113 + 21 X114 + 76 X115 + 89 X116 + 77 X117 + 40 X118 + 83 X119 + 21 X120
  + 30 X121 + 96 X122 + 69 X123 + 64 X124 + 14 X125 + 65 X126 + 46 X127 + 56 X128
  + 74 X129 + 84 X130 + 48 X131 + 79 X132 + 49 X133 + 86 X134 + 92 X135 + 23 X136
  + 48 X137 + 89 X138 + 94 X139 + 58 X140 + 1 X141 + 56 X142 + 72 X143 + 45 X144
  + 100 X145 + 22 X146 + 51 X147 + 83 X148 + 55 X149 + 87 X150 + 76 X151 + 46 X152
  + 4 X153 + 30 X154 + 12 X155 + 19 X156 + 38 X157 + 15 X158 + 35 X159 + 91 X160
  + 32 X161 + 47 X162 + 80 X163 + 90 X164 + 51 X165 + 35 X166 + 65 X167 + 90 X168
  + 78 X169 + 96 X170 + 66 X171 + 38 X172 + 72 X173 + 26 X174 + 6 X175
  >= 3
Binary
 X1
 X2
 X3
 X4
 X5
 X6
 X7
 X8
 X9
 X10
 X11
 X12
 X13
 X14
 X15
 X16
 X17
 X18
 X19
 X20
 X21
 X22
 X23
 X24
 X25
 X26
 X27
 X28
 X29
 X30
 X31
 X32
 X33
 X34
 X35
 X36
 X37
 X38
 X39
 X40
 X41
 X42
 X43
 X44
 X45
 X46
 X47
 X48
 X49
 X50
 X51
 X52
 X53
 X54
 X55
 X56
 X57
 X58
 X59
 X60
 X61
 X62
 X63
 X64
 X65
 X66
 X67
 X68
 X69
 X70
 X71
 X72
 X73
 X74
 X75
 X76
 X77
 X78
 X79
 X80
 X81
 X82
 X83
 X84
 X85
 X86
 X87
 X88
 X89
 X90
 X91
 X92
 X93
 X94
 X95
 X96
 X97
 X98
 X99
 X100
 X101
 X102
 X103
 X104
 X105
 X106
 X107
 X108
 X109
 X110
 X111
 X112
 X113
 X114
 X115
 X116
 X117
 X118
 X119
 X120
 X121
 X122
 X123
 X124
 X125
 X126
 X127
 X128
 X129
 X130
 X131
 X132
 X133
 X134
 X135
 X136
 X137
 X138
 X139
 X140
 X141
 X142
 X143
 X144
 X145
 X146
 X147
 X148
 X149
 X150
 X151
 X152
 X153
 X154
 X155
 X156
 X157
 X158
 X159
 X160
 X161
 X162
 X163
 X164
 X165
 X166
 X167
 X168
 X169
 X170
 X171
 X172
 X173
 X174
 X175
End
